c Created with the Wolfram Language : www.wolfram.com
c 
p edge 80 318
e 1 2
e 1 9
e 5 9
e 7 9
e 4 13
e 6 13
e 10 13
e 12 14
e 3 15
e 11 15
e 2 17
e 4 17
e 6 17
e 16 17
e 4 19
e 17 19
e 11 20
e 3 21
e 19 21
e 10 22
e 13 22
e 16 22
e 2 23
e 6 24
e 1 25
e 10 25
e 16 27
e 23 27
e 2 28
e 7 28
e 11 28
e 19 28
e 18 29
e 23 29
e 9 30
e 20 30
e 9 31
e 11 31
e 12 31
e 13 31
e 24 31
e 17 32
e 19 32
e 31 32
e 20 33
e 27 33
e 9 34
e 14 34
e 4 35
e 18 35
e 28 35
e 29 35
e 4 36
e 7 36
e 11 36
e 13 36
e 15 36
e 1 37
e 3 37
e 12 37
e 13 37
e 20 37
e 30 37
e 3 38
e 25 38
e 28 38
e 5 39
e 11 39
e 20 39
e 32 40
e 34 40
e 38 40
e 2 41
e 8 41
e 13 41
e 30 41
e 2 42
e 20 42
e 8 43
e 11 43
e 28 43
e 35 43
e 3 44
e 15 44
e 29 44
e 33 44
e 2 45
e 11 45
e 18 45
e 23 45
e 24 45
e 28 45
e 41 45
e 42 45
e 43 45
e 6 46
e 8 46
e 23 46
e 43 46
e 1 47
e 2 47
e 3 47
e 4 47
e 9 47
e 19 47
e 29 47
e 38 47
e 24 48
e 31 48
e 38 48
e 5 49
e 20 49
e 33 49
e 35 49
e 44 49
e 46 49
e 5 50
e 7 50
e 19 50
e 20 50
e 28 50
e 12 51
e 13 51
e 21 51
e 24 51
e 33 51
e 34 51
e 40 51
e 49 51
e 2 52
e 3 52
e 16 52
e 18 52
e 19 52
e 32 52
e 37 52
e 43 52
e 47 52
e 2 53
e 4 54
e 19 54
e 24 54
e 34 54
e 39 54
e 53 54
e 1 55
e 27 55
e 33 56
e 55 56
e 7 57
e 16 57
e 26 57
e 43 57
e 4 58
e 16 58
e 33 58
e 44 58
e 57 58
e 2 59
e 10 59
e 12 59
e 24 59
e 32 59
e 35 59
e 43 59
e 58 59
e 1 60
e 3 60
e 28 60
e 39 60
e 48 60
e 52 60
e 59 60
e 6 61
e 9 61
e 29 61
e 33 61
e 35 61
e 40 61
e 46 61
e 9 62
e 14 62
e 18 62
e 30 62
e 34 62
e 38 62
e 47 62
e 6 63
e 15 63
e 18 63
e 23 63
e 39 63
e 43 63
e 48 63
e 54 63
e 19 64
e 29 64
e 36 64
e 42 64
e 44 64
e 49 64
e 51 64
e 54 64
e 57 64
e 62 64
e 1 65
e 10 65
e 21 65
e 26 65
e 28 65
e 34 65
e 37 65
e 43 65
e 52 65
e 54 65
e 62 65
e 7 66
e 32 66
e 42 66
e 58 66
e 61 66
e 3 67
e 8 67
e 12 67
e 29 67
e 42 67
e 55 67
e 62 67
e 7 68
e 12 68
e 17 68
e 21 68
e 35 68
e 44 68
e 49 68
e 52 68
e 54 68
e 14 69
e 31 70
e 36 70
e 37 70
e 53 70
e 10 71
e 14 71
e 28 71
e 36 71
e 57 71
e 58 71
e 64 71
e 7 72
e 8 72
e 13 72
e 21 72
e 24 72
e 35 72
e 40 72
e 55 72
e 57 72
e 67 72
e 70 72
e 2 73
e 25 73
e 57 73
e 60 73
e 65 73
e 69 73
e 1 74
e 6 74
e 13 74
e 19 74
e 25 74
e 40 74
e 54 74
e 1 75
e 19 75
e 24 75
e 26 75
e 38 75
e 48 75
e 54 75
e 14 76
e 22 76
e 25 76
e 37 76
e 48 76
e 61 76
e 71 76
e 72 76
e 9 77
e 16 77
e 34 77
e 70 77
e 21 78
e 26 78
e 33 78
e 42 78
e 52 78
e 57 78
e 61 78
e 70 78
e 73 78
e 76 78
e 77 78
e 2 79
e 4 79
e 39 79
e 41 79
e 52 79
e 60 79
e 64 79
e 65 79
e 13 80
e 30 80
e 45 80
e 59 80
e 61 80
e 73 80
e 74 80
